(set-logic QF_LIA)
(set-info :ran/ran2.smt2)
(set-info :smt-lib-version 2.0)
(declare-fun x1 () Int)
(declare-fun x2 () Int)
(declare-fun x3 () Int)
(assert (<= (+ (* (- 3) x1) (* (- 9) x2) (* (- 4) x3) ) (- 8)))
(assert (<= (+ (* (- 5) x1) (* 2 x2) (* (- 7) x3) ) (- 253)))
(assert (<= (+ (* (- 9) x1) (* 1 x2) (* (- 10) x3) ) (- 576)))
(assert (<= (+ (* (- 8) x1) (* 2 x2) (* 5 x3) ) (- 19)))
(assert (<= (+ (* 10 x1) (* 2 x2) (* (- 4) x3) ) 390))
(assert (<= (+ (* (- 2) x1) (* (- 10) x2) (* 9 x3) ) 54))
(assert (<= (+ (* 1 x1) (* 0 x2) (* 0 x3) ) 630))
(assert (<= (+ (* (- 1) x1) (* 0 x2) (* 0 x3) ) 630))
(assert (<= (+ (* 0 x1) (* 1 x2) (* 0 x3) ) 630))
(assert (<= (+ (* 0 x1) (* (- 1) x2) (* 0 x3) ) 630))
(assert (<= (+ (* 0 x1) (* 0 x2) (* 1 x3) ) 630))
(assert (<= (+ (* 0 x1) (* 0 x2) (* (- 1) x3) ) 630))
